n_res = 4;
rc = [ 18, 19, 21, 19 ];
n_tasks = 60;
d = [ 8, 9, 6, 4, 9, 6, 4, 3, 5, 4, 2, 8, 9, 8, 3, 1, 5, 8, 2, 8, 1, 3, 2, 5, 4, 3, 7, 4, 7, 2, 8, 1, 10, 4, 2, 8, 5, 6, 2, 3, 9, 10, 8, 3, 6, 4, 3, 10, 3, 6, 4, 2, 3, 8, 5, 1, 10, 10, 9, 5 ];
rr = [| 0, 1, 0, 9, 0, 3, 0, 0, 0, 0, 4, 7, 0, 0, 2, 10, 8, 3, 2, 5, 6, 0, 0, 6, 8, 0, 8, 5, 9, 0, 5, 0, 0, 0, 4, 0, 0, 7, 7, 0, 0, 4, 0, 0, 5, 10, 0, 0, 0, 7, 0, 9, 0, 8, 0, 3, 0, 0, 0, 8
      | 0, 0, 9, 0, 1, 0, 0, 0, 8, 7, 0, 0, 0, 6, 0, 7, 10, 9, 0, 0, 0, 0, 0, 0, 7, 5, 0, 0, 8, 6, 3, 0, 0, 0, 2, 0, 0, 0, 3, 6, 10, 0, 1, 0, 3, 0, 0, 0, 1, 0, 4, 2, 0, 9, 2, 0, 0, 6, 0, 8
      | 9, 9, 10, 9, 0, 2, 7, 9, 0, 0, 6, 10, 6, 6, 10, 2, 0, 0, 7, 8, 7, 1, 10, 0, 0, 7, 1, 1, 10, 0, 0, 0, 4, 0, 0, 3, 0, 0, 8, 0, 8, 0, 8, 9, 2, 2, 0, 7, 0, 0, 0, 0, 5, 0, 0, 3, 9, 1, 6, 0
      | 3, 8, 0, 0, 0, 1, 0, 0, 0, 9, 0, 0, 0, 0, 0, 0, 0, 9, 2, 1, 0, 2, 0, 0, 0, 2, 9, 2, 0, 0, 8, 8, 3, 9, 10, 2, 2, 2, 0, 8, 0, 4, 0, 0, 0, 0, 3, 1, 9, 2, 5, 0, 2, 1, 0, 0, 0, 3, 10, 0 |];
suc = [ { 16, 20, 23 },
       { 4, 5, 6 },
       { 15, 18, 28 },
       { 7, 8, 14 },
       { 10, 36, 40 },
       { 20, 35, 50 },
       { 9, 11, 19 },
       { 21, 24, 25 },
       { 12, 27, 43 },
       { 24, 30, 41 },
       { 28 },
       { 13, 25, 33 },
       { 17, 23, 29 },
       { 24, 39 },
       { 26, 32, 53 },
       { 34, 37, 41 },
       { 20, 49, 56 },
       { 22, 25, 55 },
       { 39, 54, 55 },
       { 37, 60 },
       { 22, 30, 40 },
       { 33, 50, 51 },
       { 35, 47, 49 },
       { 32, 38, 43 },
       { 50 },
       { 33, 43, 45 },
       { 31, 40, 46 },
       { 42, 54 },
       { 30, 36 },
       { 31, 32, 49 },
       { 34, 37 },
       { 48 },
       { 36 },
       { 35, 38 },
       { 42, 51, 53 },
       { 39, 54 },
       { 44, 47 },
       { 42, 44 },
       { 46 },
       { 41, 45 },
       { 48, 58 },
       { 45 },
       { 44, 46, 47 },
       { 51, 57 },
       { 56 },
       { 48, 52, 59 },
       { 59 },
       { 60 },
       { 53, 55 },
       { 52 },
       { 52 },
       { 58 },
       { 57 },
       { 56 },
       { 60 },
       { 57, 59 },
       { 58 },
       {  },
       {  },
       {  } ];
